3524197
97,4,5,67,111,109,136,137,206,207,121,184,151,176,190,15,66,70,71,117,42,81,16,196,195,210,48,156,68,69,64,78,24,123,208,172,171,92,197,9,148,114,138,110,57,58,84,194,228,95,100,191,178,88,36,27,132,26,185,186,127,189,179,126,134,105,167,89,149,23,40,98,221,32,145,102,128,37,152,140,52,53,218,174,120,227,3,202,203,79,1,173,50,65,55,201,38,139,0,125,135,220,229,108,216,222,211,212,44,103,223,131,13,142,193,59,12,164,96,188,29,19,150,46,47,63,175,8,90,33,34,86,129,143,2,146,153,28,198,158,160,49,62,162,41,112,217,187,166,130,122,91,76,11,87,17,215,99,104,170,74,214,226,213,45,177,72,116,115,168,77,20,169,141,183,165,209,75,83,118,119,224,144,154,155,61,182,21,22,219,204,101,80,106,39,54,163,133,94,10,6,35,93,107,25,31,73,200,7,161,82,14,30,205,159,225,85,157,51,56,18,43,124,113,192,199,147,180,181,60
